H2 O2
1.0
20.000000 0.000000 0.000000
0.000000 20.000000 0.000000
0.000000 0.000000 20.000000
H O
2 2
Selective dynamics
direct
0.491561 0.547277 0.490670 T T T H
0.581971 0.490219 0.547185 T T T H
0.500000 0.500000 0.500000 F F F O
0.573527 0.500000 0.500000 T F F O
