ALGO = Fast
EDIFF = 0.0006000000000000001
ENCUT = 520
IBRION = 2
ICHARG = 1
ISIF = 3
ISMEAR = -5
ISPIN = 2
LDAU = True
LDAUJ = 0 0 0
LDAUL = 0 2 0
LDAUPRINT = 1
LDAUTYPE = 2
LDAUU = 0 3.32 0
LMAXMIX = 4
LORBIT = 11
LREAL = Auto
LWAVE = False
MAGMOM = 3*0.6 3*5.0 6*0.6
NELM = 100
NELMIN = 5
NSW = 99
PREC = Accurate
SIGMA = 0.05
