pymatgen v2019.10.3 with grid density = 3090 / atom
0
Gamma
10 10 2
