Li3 Co3 O6
1.0
2.814000 0.000000 0.000000
-1.407000 2.436995 0.000000
0.000000 0.000000 14.048000
Li Co O
3 3 6
direct
0.000000 0.000000 0.500000 Li
0.666667 0.333333 0.833333 Li
0.333333 0.666667 0.166667 Li
0.000000 0.000000 0.000000 Co
0.666667 0.333333 0.333333 Co
0.333333 0.666667 0.666667 Co
0.000000 0.000000 0.226800 O
0.000000 0.000000 0.773200 O
0.666667 0.333333 0.560133 O
0.666667 0.333333 0.106533 O
0.333333 0.666667 0.893467 O
0.333333 0.666667 0.439867 O
