ALGO = Normal
EDIFF = 1e-06
EDIFFG = -0.001
EINT = -6.5454 -6.4205
ENCUT = 600.0
IBRION = 1
ICHARG = 0
ISIF = 0
ISMEAR = 0
ISPIN = 2
ISYM = 0
LAECHG = True
LASPH = True
LCHARG = True
LMAXMIX = 4
LORBIT = 11
LPARD = True
LREAL = False
LWAVE = True
MAGMOM = 4*0.6
NEDOS = 1001
NELECT = 14.0
NELM = 100
NELMDL = -12
NELMIN = 4
NSW = 200
PREC = Accurate
SIGMA = 0.01
SYSTEM = H2-o2__ne_000_d_130
