pymatgen v1.1 with grid density = 12 / atom
0
Gamma
1 1 1
